5 5
5 2 1 9 2 7 1 4 13 5 3 15 1 19 5 16 4 17 2 11 1 4 14 4 2 2 3 5 5 6 1 18
6 1 5 4 4 1 14 2 13 4 16 5 5 4 4 6 5 18 3 15 2 15 2 2 5 5 10 5 2 2 3 9 1 11 5 9 4 10 4 1 17 4 7 5 13 3 6
4 5 5 17 1 6 2 6 3 15 4 5 5 2 10 5 18 1 13 4 9 3 4 4 5 7 1 15 3 5 4 8 4 4 10 3 10 5 8 1 17
7 3 1 11 5 12 4 11 4 5 4 3 16 2 8 1 5 2 1 14 2 5 4 5 5 4 2 1 15 2 5 4 4 2 3 14 5 9 2 3 4 2 3 3 17 5 18 4 19 4 3 14 4 3 5 5 2 3
5 2 2 11 5 10 5 3 20 2 9 4 9 5 4 1 19 3 5 12 3 10 2 9 2 3 19 2 11 4 1 10 3 12 4 17 5 15